(declare-const v0 Bool)
(declare-const v1 Bool)
(declare-const v2 Bool)
(declare-const v3 Bool)
(declare-const v4 Bool)
(assert (edge (or v1 (not v0)) (or v1 (not v0))))
(assert (edge (or v1 (not v0)) (or (not v0) (not v2))))
(assert (edge (or v1 (not v3) (not v2)) (or v0 v4)))
(assert (edge (or v3 (not v4)) (or v4 (not v0))))
(assert (edge (or v2 v4) true))
(assert (not (edge (not v2) v1)))